p cnf 28 60
-2 -3 1 0
2 -1 0
3 -1 0
-5 -1 4 0
5 -4 0
1 -4 0
-1 6 0
1 -6 0
-5 -1 7 0
5 -7 0
1 -7 0
-9 -10 8 0
9 -8 0
10 -8 0
-12 -8 11 0
12 -11 0
8 -11 0
-8 13 0
8 -13 0
-12 -8 14 0
12 -14 0
8 -14 0
-16 -17 15 0
16 -15 0
17 -15 0
-19 -15 18 0
19 -18 0
15 -18 0
-15 20 0
15 -20 0
-19 -15 21 0
19 -21 0
15 -21 0
-23 -24 22 0
23 -22 0
24 -22 0
-26 -22 25 0
26 -25 0
22 -25 0
-22 27 0
22 -27 0
-26 -22 28 0
26 -28 0
22 -28 0
10 -4 0
-10 4 0
9 -6 0
-9 6 0
17 -11 0
-17 11 0
16 -13 0
-16 13 0
24 -18 0
-24 18 0
23 -20 0
-23 20 0
-2 0
-3 0
24 0
-23 0
